data/lp_files/pEFS/48_9.lp
\ Model foo
\ LP format - for model browsing. Use MPS format to capture full model detail.
Minimize
  z
Subject To
 allocateEach[1]: x[1,1] + x[2,1] + x[3,1] = 1
 allocateEach[2]: x[1,2] + x[2,2] + x[3,2] = 1
 allocateEach[3]: x[1,3] + x[2,3] + x[3,3] = 1
 allocateEach[4]: x[1,4] + x[2,4] + x[3,4] = 1
 allocateEach[5]: x[1,5] + x[2,5] + x[3,5] = 1
 allocateEach[6]: x[1,6] + x[2,6] + x[3,6] = 1
 allocateEach[7]: x[1,7] + x[2,7] + x[3,7] = 1
 allocateEach[8]: x[1,8] + x[2,8] + x[3,8] = 1
 allocateAllCash: cashProportion[1] + cashProportion[2] + cashProportion[3]
   = 1
 findWorstP[1,2]: z + 0.1803686735687746 cashProportion[1]
   - 0.1803686735687746 cashProportion[2] + 0.1204141264745139 x[1,1]
   + 0.1533133725334584 x[1,2] + 0.0659247501893871 x[1,3]
   + 0.1374409292594062 x[1,4] + 0.1381984776883951 x[1,5]
   + 0.0639046210454168 x[1,6] + 0.0538220121929223 x[1,7]
   + 0.0866130370477255 x[1,8] - 0.1204141264745139 x[2,1]
   - 0.1533133725334584 x[2,2] - 0.0659247501893871 x[2,3]
   - 0.1374409292594062 x[2,4] - 0.1381984776883951 x[2,5]
   - 0.0639046210454168 x[2,6] - 0.0538220121929223 x[2,7]
   - 0.0866130370477255 x[2,8] >= 0
 findWorstP[1,3]: z + 0.1803686735687746 cashProportion[1]
   - 0.1803686735687746 cashProportion[3] + 0.1204141264745139 x[1,1]
   + 0.1533133725334584 x[1,2] + 0.0659247501893871 x[1,3]
   + 0.1374409292594062 x[1,4] + 0.1381984776883951 x[1,5]
   + 0.0639046210454168 x[1,6] + 0.0538220121929223 x[1,7]
   + 0.0866130370477255 x[1,8] - 0.1204141264745139 x[3,1]
   - 0.1533133725334584 x[3,2] - 0.0659247501893871 x[3,3]
   - 0.1374409292594062 x[3,4] - 0.1381984776883951 x[3,5]
   - 0.0639046210454168 x[3,6] - 0.0538220121929223 x[3,7]
   - 0.0866130370477255 x[3,8] >= 0
 findWorstP[2,1]: z - 0.2561934773140676 cashProportion[1]
   + 0.2561934773140676 cashProportion[2] - 0.000589245 x[1,1]
   - 0.0618963441190787 x[1,2] - 0.046294161350652 x[1,3]
   - 0.1928880690697615 x[1,4] - 0.1229984884584838 x[1,5]
   - 0.1028616811415981 x[1,6] - 0.1985755642661338 x[1,7]
   - 0.0177029692824021 x[1,8] + 0.000589245 x[2,1]
   + 0.0618963441190787 x[2,2] + 0.046294161350652 x[2,3]
   + 0.1928880690697615 x[2,4] + 0.1229984884584838 x[2,5]
   + 0.1028616811415981 x[2,6] + 0.1985755642661338 x[2,7]
   + 0.0177029692824021 x[2,8] >= 0
 findWorstP[2,3]: z + 0.2561934773140676 cashProportion[2]
   - 0.2561934773140676 cashProportion[3] + 0.000589245 x[2,1]
   + 0.0618963441190787 x[2,2] + 0.046294161350652 x[2,3]
   + 0.1928880690697615 x[2,4] + 0.1229984884584838 x[2,5]
   + 0.1028616811415981 x[2,6] + 0.1985755642661338 x[2,7]
   + 0.0177029692824021 x[2,8] - 0.000589245 x[3,1]
   - 0.0618963441190787 x[3,2] - 0.046294161350652 x[3,3]
   - 0.1928880690697615 x[3,4] - 0.1229984884584838 x[3,5]
   - 0.1028616811415981 x[3,6] - 0.1985755642661338 x[3,7]
   - 0.0177029692824021 x[3,8] >= 0
 findWorstP[3,1]: z - 0.2722792495983882 cashProportion[1]
   + 0.2722792495983882 cashProportion[3] - 0.1438995834127481 x[1,1]
   - 0.0425572467122281 x[1,2] - 0.0627059111825088 x[1,3]
   - 0.1284068941105998 x[1,4] - 0.2289596209872846 x[1,5]
   - 0.0235249271653007 x[1,6] - 0.0622974923081112 x[1,7]
   - 0.0353690745228306 x[1,8] + 0.1438995834127481 x[3,1]
   + 0.0425572467122281 x[3,2] + 0.0627059111825088 x[3,3]
   + 0.1284068941105998 x[3,4] + 0.2289596209872846 x[3,5]
   + 0.0235249271653007 x[3,6] + 0.0622974923081112 x[3,7]
   + 0.0353690745228306 x[3,8] >= 0
 findWorstP[3,2]: z - 0.2722792495983882 cashProportion[2]
   + 0.2722792495983882 cashProportion[3] - 0.1438995834127481 x[2,1]
   - 0.0425572467122281 x[2,2] - 0.0627059111825088 x[2,3]
   - 0.1284068941105998 x[2,4] - 0.2289596209872846 x[2,5]
   - 0.0235249271653007 x[2,6] - 0.0622974923081112 x[2,7]
   - 0.0353690745228306 x[2,8] + 0.1438995834127481 x[3,1]
   + 0.0425572467122281 x[3,2] + 0.0627059111825088 x[3,3]
   + 0.1284068941105998 x[3,4] + 0.2289596209872846 x[3,5]
   + 0.0235249271653007 x[3,6] + 0.0622974923081112 x[3,7]
   + 0.0353690745228306 x[3,8] >= 0
Bounds
 z <= 1
 -infinity <= cashProportion[1] <= 1
 -infinity <= cashProportion[2] <= 1
 -infinity <= cashProportion[3] <= 1
Binaries
 x[1,1] x[1,2] x[1,3] x[1,4] x[1,5] x[1,6] x[1,7] x[1,8] x[2,1] x[2,2]
 x[2,3] x[2,4] x[2,5] x[2,6] x[2,7] x[2,8] x[3,1] x[3,2] x[3,3] x[3,4]
 x[3,5] x[3,6] x[3,7] x[3,8]
End
