data/mps_files/pEFS/48_9.mps
NAME foo
ROWS
 N  OBJ
 E  allocateEach[1]
 E  allocateEach[2]
 E  allocateEach[3]
 E  allocateEach[4]
 E  allocateEach[5]
 E  allocateEach[6]
 E  allocateEach[7]
 E  allocateEach[8]
 E  allocateAllCash
 G  findWorstP[1,2]
 G  findWorstP[1,3]
 G  findWorstP[2,1]
 G  findWorstP[2,3]
 G  findWorstP[3,1]
 G  findWorstP[3,2]
COLUMNS
    z         OBJ       1
    z         findWorstP[1,2]  1
    z         findWorstP[1,3]  1
    z         findWorstP[2,1]  1
    z         findWorstP[2,3]  1
    z         findWorstP[3,1]  1
    z         findWorstP[3,2]  1
    cashProportion[1]  allocateAllCash  1
    cashProportion[1]  findWorstP[1,2]  1.8036867356877459e-01
    cashProportion[1]  findWorstP[1,3]  1.8036867356877459e-01
    cashProportion[1]  findWorstP[2,1]  -2.5619347731406761e-01
    cashProportion[1]  findWorstP[3,1]  -2.7227924959838817e-01
    cashProportion[2]  allocateAllCash  1
    cashProportion[2]  findWorstP[1,2]  -1.8036867356877459e-01
    cashProportion[2]  findWorstP[2,1]  2.5619347731406761e-01
    cashProportion[2]  findWorstP[2,3]  2.5619347731406761e-01
    cashProportion[2]  findWorstP[3,2]  -2.7227924959838817e-01
    cashProportion[3]  allocateAllCash  1
    cashProportion[3]  findWorstP[1,3]  -1.8036867356877459e-01
    cashProportion[3]  findWorstP[2,3]  -2.5619347731406761e-01
    cashProportion[3]  findWorstP[3,1]  2.7227924959838817e-01
    cashProportion[3]  findWorstP[3,2]  2.7227924959838817e-01
    MARKER    'MARKER'                 'INTORG'
    x[1,1]    allocateEach[1]  1
    x[1,1]    findWorstP[1,2]  1.2041412647451390e-01
    x[1,1]    findWorstP[1,3]  1.2041412647451390e-01
    x[1,1]    findWorstP[2,1]  -5.8924499782235539e-04
    x[1,1]    findWorstP[3,1]  -1.4389958341274811e-01
    x[1,2]    allocateEach[2]  1
    x[1,2]    findWorstP[1,2]  1.5331337253345836e-01
    x[1,2]    findWorstP[1,3]  1.5331337253345836e-01
    x[1,2]    findWorstP[2,1]  -6.1896344119078725e-02
    x[1,2]    findWorstP[3,1]  -4.2557246712228061e-02
    x[1,3]    allocateEach[3]  1
    x[1,3]    findWorstP[1,2]  6.5924750189387107e-02
    x[1,3]    findWorstP[1,3]  6.5924750189387107e-02
    x[1,3]    findWorstP[2,1]  -4.6294161350652008e-02
    x[1,3]    findWorstP[3,1]  -6.2705911182508789e-02
    x[1,4]    allocateEach[4]  1
    x[1,4]    findWorstP[1,2]  1.3744092925940621e-01
    x[1,4]    findWorstP[1,3]  1.3744092925940621e-01
    x[1,4]    findWorstP[2,1]  -1.9288806906976147e-01
    x[1,4]    findWorstP[3,1]  -1.2840689411059983e-01
    x[1,5]    allocateEach[5]  1
    x[1,5]    findWorstP[1,2]  1.3819847768839508e-01
    x[1,5]    findWorstP[1,3]  1.3819847768839508e-01
    x[1,5]    findWorstP[2,1]  -1.2299848845848384e-01
    x[1,5]    findWorstP[3,1]  -2.2895962098728456e-01
    x[1,6]    allocateEach[6]  1
    x[1,6]    findWorstP[1,2]  6.3904621045416832e-02
    x[1,6]    findWorstP[1,3]  6.3904621045416832e-02
    x[1,6]    findWorstP[2,1]  -1.0286168114159813e-01
    x[1,6]    findWorstP[3,1]  -2.3524927165300736e-02
    x[1,7]    allocateEach[7]  1
    x[1,7]    findWorstP[1,2]  5.3822012192922326e-02
    x[1,7]    findWorstP[1,3]  5.3822012192922326e-02
    x[1,7]    findWorstP[2,1]  -1.9857556426613376e-01
    x[1,7]    findWorstP[3,1]  -0.0622974923081112
    x[1,8]    allocateEach[8]  1
    x[1,8]    findWorstP[1,2]  8.6613037047725550e-02
    x[1,8]    findWorstP[1,3]  8.6613037047725550e-02
    x[1,8]    findWorstP[2,1]  -1.7702969282402066e-02
    x[1,8]    findWorstP[3,1]  -3.5369074522830612e-02
    x[2,1]    allocateEach[1]  1
    x[2,1]    findWorstP[1,2]  -1.2041412647451390e-01
    x[2,1]    findWorstP[2,1]  5.8924499782235539e-04
    x[2,1]    findWorstP[2,3]  5.8924499782235539e-04
    x[2,1]    findWorstP[3,2]  -1.4389958341274811e-01
    x[2,2]    allocateEach[2]  1
    x[2,2]    findWorstP[1,2]  -1.5331337253345836e-01
    x[2,2]    findWorstP[2,1]  6.1896344119078725e-02
    x[2,2]    findWorstP[2,3]  6.1896344119078725e-02
    x[2,2]    findWorstP[3,2]  -4.2557246712228061e-02
    x[2,3]    allocateEach[3]  1
    x[2,3]    findWorstP[1,2]  -6.5924750189387107e-02
    x[2,3]    findWorstP[2,1]  4.6294161350652008e-02
    x[2,3]    findWorstP[2,3]  4.6294161350652008e-02
    x[2,3]    findWorstP[3,2]  -6.2705911182508789e-02
    x[2,4]    allocateEach[4]  1
    x[2,4]    findWorstP[1,2]  -1.3744092925940621e-01
    x[2,4]    findWorstP[2,1]  1.9288806906976147e-01
    x[2,4]    findWorstP[2,3]  1.9288806906976147e-01
    x[2,4]    findWorstP[3,2]  -1.2840689411059983e-01
    x[2,5]    allocateEach[5]  1
    x[2,5]    findWorstP[1,2]  -1.3819847768839508e-01
    x[2,5]    findWorstP[2,1]  1.2299848845848384e-01
    x[2,5]    findWorstP[2,3]  1.2299848845848384e-01
    x[2,5]    findWorstP[3,2]  -2.2895962098728456e-01
    x[2,6]    allocateEach[6]  1
    x[2,6]    findWorstP[1,2]  -6.3904621045416832e-02
    x[2,6]    findWorstP[2,1]  1.0286168114159813e-01
    x[2,6]    findWorstP[2,3]  1.0286168114159813e-01
    x[2,6]    findWorstP[3,2]  -2.3524927165300736e-02
    x[2,7]    allocateEach[7]  1
    x[2,7]    findWorstP[1,2]  -5.3822012192922326e-02
    x[2,7]    findWorstP[2,1]  1.9857556426613376e-01
    x[2,7]    findWorstP[2,3]  1.9857556426613376e-01
    x[2,7]    findWorstP[3,2]  -0.0622974923081112
    x[2,8]    allocateEach[8]  1
    x[2,8]    findWorstP[1,2]  -8.6613037047725550e-02
    x[2,8]    findWorstP[2,1]  1.7702969282402066e-02
    x[2,8]    findWorstP[2,3]  1.7702969282402066e-02
    x[2,8]    findWorstP[3,2]  -3.5369074522830612e-02
    x[3,1]    allocateEach[1]  1
    x[3,1]    findWorstP[1,3]  -1.2041412647451390e-01
    x[3,1]    findWorstP[2,3]  -5.8924499782235539e-04
    x[3,1]    findWorstP[3,1]  1.4389958341274811e-01
    x[3,1]    findWorstP[3,2]  1.4389958341274811e-01
    x[3,2]    allocateEach[2]  1
    x[3,2]    findWorstP[1,3]  -1.5331337253345836e-01
    x[3,2]    findWorstP[2,3]  -6.1896344119078725e-02
    x[3,2]    findWorstP[3,1]  4.2557246712228061e-02
    x[3,2]    findWorstP[3,2]  4.2557246712228061e-02
    x[3,3]    allocateEach[3]  1
    x[3,3]    findWorstP[1,3]  -6.5924750189387107e-02
    x[3,3]    findWorstP[2,3]  -4.6294161350652008e-02
    x[3,3]    findWorstP[3,1]  6.2705911182508789e-02
    x[3,3]    findWorstP[3,2]  6.2705911182508789e-02
    x[3,4]    allocateEach[4]  1
    x[3,4]    findWorstP[1,3]  -1.3744092925940621e-01
    x[3,4]    findWorstP[2,3]  -1.9288806906976147e-01
    x[3,4]    findWorstP[3,1]  1.2840689411059983e-01
    x[3,4]    findWorstP[3,2]  1.2840689411059983e-01
    x[3,5]    allocateEach[5]  1
    x[3,5]    findWorstP[1,3]  -1.3819847768839508e-01
    x[3,5]    findWorstP[2,3]  -1.2299848845848384e-01
    x[3,5]    findWorstP[3,1]  2.2895962098728456e-01
    x[3,5]    findWorstP[3,2]  2.2895962098728456e-01
    x[3,6]    allocateEach[6]  1
    x[3,6]    findWorstP[1,3]  -6.3904621045416832e-02
    x[3,6]    findWorstP[2,3]  -1.0286168114159813e-01
    x[3,6]    findWorstP[3,1]  2.3524927165300736e-02
    x[3,6]    findWorstP[3,2]  2.3524927165300736e-02
    x[3,7]    allocateEach[7]  1
    x[3,7]    findWorstP[1,3]  -5.3822012192922326e-02
    x[3,7]    findWorstP[2,3]  -1.9857556426613376e-01
    x[3,7]    findWorstP[3,1]  0.0622974923081112
    x[3,7]    findWorstP[3,2]  0.0622974923081112
    x[3,8]    allocateEach[8]  1
    x[3,8]    findWorstP[1,3]  -8.6613037047725550e-02
    x[3,8]    findWorstP[2,3]  -1.7702969282402066e-02
    x[3,8]    findWorstP[3,1]  3.5369074522830612e-02
    x[3,8]    findWorstP[3,2]  3.5369074522830612e-02
    MARKER    'MARKER'                 'INTEND'
RHS
    RHS1      allocateEach[1]  1
    RHS1      allocateEach[2]  1
    RHS1      allocateEach[3]  1
    RHS1      allocateEach[4]  1
    RHS1      allocateEach[5]  1
    RHS1      allocateEach[6]  1
    RHS1      allocateEach[7]  1
    RHS1      allocateEach[8]  1
    RHS1      allocateAllCash  1
BOUNDS
 UP BND1      z         1
 MI BND1      cashProportion[1]
 UP BND1      cashProportion[1]  1
 MI BND1      cashProportion[2]
 UP BND1      cashProportion[2]  1
 MI BND1      cashProportion[3]
 UP BND1      cashProportion[3]  1
 BV BND1      x[1,1]  
 BV BND1      x[1,2]  
 BV BND1      x[1,3]  
 BV BND1      x[1,4]  
 BV BND1      x[1,5]  
 BV BND1      x[1,6]  
 BV BND1      x[1,7]  
 BV BND1      x[1,8]  
 BV BND1      x[2,1]  
 BV BND1      x[2,2]  
 BV BND1      x[2,3]  
 BV BND1      x[2,4]  
 BV BND1      x[2,5]  
 BV BND1      x[2,6]  
 BV BND1      x[2,7]  
 BV BND1      x[2,8]  
 BV BND1      x[3,1]  
 BV BND1      x[3,2]  
 BV BND1      x[3,3]  
 BV BND1      x[3,4]  
 BV BND1      x[3,5]  
 BV BND1      x[3,6]  
 BV BND1      x[3,7]  
 BV BND1      x[3,8]  
ENDATA
